p cnf 75 525
1 -75 -56 0
1 -75 -52 0
1 -75 12 0
1 -75 25 0
1 -75 45 0
1 -75 46 0
1 -75 51 0
1 -74 -47 0
1 -74 -43 0
1 -74 -16 0
1 -74 -9 0
1 -74 37 0
1 -74 70 0
1 -74 71 0
1 -73 -69 0
1 -73 -52 0
1 -73 -26 0
1 -73 9 0
1 -73 21 0
1 -73 48 0
1 -73 64 0
1 -72 -22 0
1 -72 -20 0
1 -72 2 0
1 -72 47 0
1 -72 61 0
1 -72 69 0
1 -72 71 0
1 -71 -63 0
1 -71 -18 0
1 -71 -11 0
1 -71 -10 0
1 -71 7 0
1 -71 22 0
1 -71 49 0
1 -70 -57 0
1 -70 -54 0
1 -70 -30 0
1 -70 45 0
1 -70 47 0
1 -70 59 0
1 -70 66 0
1 -69 -25 0
1 -69 -19 0
1 -69 17 0
1 -69 42 0
1 -69 48 0
1 -69 60 0
1 -68 -52 0
1 -68 -24 0
1 -68 -22 0
1 -68 -15 0
1 -68 -8 0
1 -68 23 0
1 -68 71 0
1 -67 -14 0
1 -67 -7 0
1 -67 2 0
1 -67 37 0
1 -67 41 0
1 -67 43 0
1 -67 66 0
1 -66 -39 0
1 -66 -36 0
1 -66 -26 0
1 -66 -24 0
1 -66 -10 0
1 -66 1 0
1 -66 33 0
1 -65 -51 0
1 -65 -43 0
1 -65 -22 0
1 -65 -17 0
1 -65 12 0
1 -65 56 0
1 -65 63 0
1 -64 -55 0
1 -64 -44 0
1 -64 -13 0
1 -64 -6 0
1 -64 -2 0
1 -64 54 0
1 -64 60 0
1 -63 -62 0
1 -63 -53 0
1 -63 3 0
1 -63 8 0
1 -63 24 0
1 -63 67 0
1 -62 -43 0
1 -62 -2 0
1 -62 9 0
1 -62 30 0
1 -62 32 0
1 -62 66 0
1 -61 -43 0
1 -61 -39 0
1 -61 -37 0
1 -61 7 0
1 -61 26 0
1 -61 47 0
1 -61 68 0
1 -60 -31 0
1 -60 28 0
1 -60 29 0
1 -60 37 0
1 -60 44 0
1 -60 65 0
1 -60 70 0
1 -59 -55 0
1 -59 -31 0
1 -59 1 0
1 -59 14 0
1 -59 40 0
1 -59 46 0
1 -59 52 0
1 -58 -20 0
1 -58 -18 0
1 -58 -1 0
1 -58 5 0
1 -58 28 0
1 -58 47 0
1 -58 50 0
1 -57 -32 0
1 -57 -30 0
1 -57 -22 0
1 -57 1 0
1 -57 31 0
1 -57 64 0
1 -56 -12 0
1 -56 8 0
1 -56 16 0
1 -56 31 0
1 -56 57 0
1 -56 61 0
1 -55 -48 0
1 -55 10 0
1 -55 15 0
1 -55 48 0
1 -55 53 0
1 -54 -51 0
1 -54 -31 0
1 -54 -23 0
1 -54 -9 0
1 -54 6 0
1 -54 67 0
1 -53 -40 0
1 -53 -37 0
1 -53 -20 0
1 -53 13 0
1 -53 27 0
1 -53 69 0
1 -52 -47 0
1 -52 -33 0
1 -52 23 0
1 -52 75 0
1 -51 -32 0
1 -51 -24 0
1 -51 -21 0
1 -51 50 0
1 -51 54 0
1 -50 -35 0
1 -50 -32 0
1 -50 -13 0
1 -50 -8 0
1 -50 -3 0
1 -50 28 0
1 -50 41 0
1 -49 -46 0
1 -49 -14 0
1 -49 6 0
1 -49 10 0
1 -49 22 0
1 -49 31 0
1 -49 53 0
1 -48 -32 0
1 -48 1 0
1 -48 7 0
1 -48 12 0
1 -48 19 0
1 -48 20 0
1 -47 -34 0
1 -47 -6 0
1 -47 6 0
1 -47 62 0
1 -47 66 0
1 -46 -33 0
1 -46 -28 0
1 -46 5 0
1 -46 29 0
1 -46 36 0
1 -46 39 0
1 -45 -34 0
1 -45 -20 0
1 -45 6 0
1 -45 25 0
1 -45 35 0
1 -45 38 0
1 -45 46 0
1 -44 3 0
1 -44 18 0
1 -44 21 0
1 -44 36 0
1 -44 64 0
1 -44 67 0
1 -43 -13 0
1 -43 51 0
1 -43 68 0
1 -42 -17 0
1 -42 -10 0
1 -42 -8 0
1 -42 24 0
1 -42 43 0
1 -42 49 0
1 -42 73 0
1 -41 -23 0
1 -41 -6 0
1 -41 -4 0
1 -41 12 0
1 -41 29 0
1 -41 33 0
1 -41 39 0
1 -40 -31 0
1 -40 -28 0
1 -40 -20 0
1 -40 -18 0
1 -40 -1 0
1 -40 18 0
1 -39 -34 0
1 -39 -15 0
1 -39 -12 0
1 -39 19 0
1 -39 55 0
1 -38 -23 0
1 -38 14 0
1 -38 16 0
1 -38 42 0
1 -38 43 0
1 -38 59 0
1 -38 67 0
1 -37 -28 0
1 -37 -5 0
1 -37 -3 0
1 -37 8 0
1 -37 71 0
1 -36 -29 0
1 -36 -25 0
1 -36 3 0
1 -36 9 0
1 -36 51 0
1 -36 73 0
1 -35 -14 0
1 -35 13 0
1 -35 21 0
1 -35 30 0
1 -35 68 0
1 -35 70 0
1 -34 -14 0
1 -34 47 0
1 -34 51 0
1 -34 75 0
1 -33 6 0
1 -33 24 0
1 -33 57 0
1 -33 65 0
1 -33 68 0
1 -32 -5 0
1 -32 50 0
1 -32 58 0
1 -31 -6 0
1 -31 55 0
1 -31 59 0
1 -30 -19 0
1 -30 -11 0
1 -30 -8 0
1 -30 20 0
1 -30 56 0
1 -29 -12 0
1 -29 -4 0
1 -29 2 0
1 -29 7 0
1 -29 53 0
1 -29 68 0
1 -28 -21 0
1 -28 8 0
1 -28 55 0
1 -28 67 0
1 -27 5 0
1 -27 18 0
1 -27 39 0
1 -27 45 0
1 -27 54 0
1 -27 58 0
1 -27 67 0
1 -26 5 0
1 -26 21 0
1 -26 38 0
1 -26 58 0
1 -26 62 0
1 -25 9 0
1 -25 10 0
1 -25 22 0
1 -25 49 0
1 -25 61 0
1 -24 -23 0
1 -24 52 0
1 -24 58 0
1 -24 65 0
1 -23 17 0
1 -23 51 0
1 -23 65 0
1 -22 -18 0
1 -22 2 0
1 -22 62 0
1 -21 -1 0
1 -21 14 0
1 -21 25 0
1 -21 44 0
1 -21 59 0
1 -20 36 0
1 -20 75 0
1 -19 20 0
1 -19 31 0
1 -19 56 0
1 -19 60 0
1 -19 61 0
1 -18 -6 0
1 -18 34 0
1 -18 63 0
1 -17 28 0
1 -17 46 0
1 -17 50 0
1 -17 51 0
1 -17 73 0
1 -16 -3 0
1 -16 13 0
1 -16 15 0
1 -16 50 0
1 -16 63 0
1 -16 75 0
1 -15 -7 0
1 -15 30 0
1 -15 48 0
1 -15 58 0
1 -15 74 0
1 -14 43 0
1 -14 45 0
1 -14 63 0
1 -13 5 0
1 -13 22 0
1 -13 48 0
1 -13 63 0
1 -12 4 0
1 -12 19 0
1 -12 25 0
1 -12 65 0
1 -11 4 0
1 -11 61 0
1 -11 64 0
1 -11 70 0
1 -11 75 0
1 -10 5 0
1 -10 15 0
1 -10 26 0
1 -10 42 0
1 -9 16 0
1 -9 22 0
1 -9 35 0
1 -9 36 0
1 -9 60 0
1 -8 -5 0
1 -8 6 0
1 -8 48 0
1 -7 -4 0
1 -7 25 0
1 -7 34 0
1 -7 54 0
1 -7 69 0
1 -6 52 0
1 -6 61 0
1 -5 -2 0
1 -5 43 0
1 -5 64 0
1 -5 71 0
1 -4 9 0
1 -4 30 0
1 -4 35 0
1 -4 40 0
1 -3 38 0
1 -3 39 0
1 -3 63 0
1 -3 66 0
1 -2 17 0
1 -2 38 0
1 -2 40 0
1 -2 72 0
1 -1 14 0
1 -1 23 0
1 -1 60 0
1 -1 72 0
1 1 11 0
1 1 74 0
1 1 75 0
1 2 19 0
1 2 21 0
1 2 64 0
1 3 7 0
1 3 9 0
1 3 35 0
1 3 75 0
1 4 27 0
1 4 39 0
1 4 57 0
1 4 60 0
1 4 73 0
1 5 46 0
1 6 21 0
1 7 24 0
1 7 38 0
1 8 41 0
1 8 47 0
1 8 59 0
1 9 60 0
1 10 23 0
1 10 30 0
1 10 42 0
1 10 66 0
1 11 15 0
1 11 17 0
1 11 40 0
1 11 44 0
1 11 52 0
1 11 71 0
1 12 17 0
1 12 22 0
1 12 27 0
1 13 26 0
1 13 36 0
1 13 56 0
1 13 59 0
1 14 39 0
1 14 41 0
1 14 52 0
1 15 26 0
1 15 37 0
1 15 44 0
1 16 29 0
1 16 40 0
1 16 48 0
1 16 61 0
1 17 27 0
1 17 68 0
1 18 25 0
1 18 41 0
1 18 46 0
1 18 73 0
1 19 43 0
1 19 62 0
1 19 72 0
1 20 37 0
1 20 45 0
1 20 62 0
1 20 64 0
1 21 36 0
1 22 34 0
1 23 34 0
1 23 55 0
1 23 70 0
1 24 25 0
1 24 35 0
1 24 67 0
1 26 29 0
1 26 59 0
1 26 73 0
1 27 50 0
1 27 53 0
1 27 73 0
1 28 33 0
1 28 37 0
1 28 47 0
1 29 37 0
1 29 74 0
1 30 58 0
1 30 69 0
1 31 34 0
1 31 35 0
1 31 74 0
1 32 38 0
1 32 44 0
1 32 49 0
1 32 52 0
1 32 65 0
1 32 68 0
1 33 40 0
1 33 57 0
1 33 63 0
1 33 72 0
1 34 40 0
1 34 72 0
1 35 55 0
1 36 39 0
1 38 72 0
1 41 55 0
1 41 70 0
1 42 44 0
1 42 49 0
1 42 55 0
1 43 49 0
1 44 57 0
1 45 57 0
1 45 74 0
1 46 69 0
1 49 56 0
1 50 65 0
1 51 56 0
1 52 69 0
1 53 54 0
1 53 62 0
1 53 74 0
1 54 58 0
1 54 72 0
1 56 69 0
1 57 71 0
1 62 66 0
1 70 74 0
